unsat
(define-fun inv ((s (_ BitVec 4)) (t (_ BitVec 4))) (_ BitVec 4) (bvneg (bvashr s s)))
0.03user 0.01system 0:00.04elapsed 100%CPU (0avgtext+0avgdata 27160maxresident)k
0inputs+8outputs (0major+1496minor)pagefaults 0swaps
